data/lp_files/pEFS/73_3.lp
\ Model foo
\ LP format - for model browsing. Use MPS format to capture full model detail.
Minimize
  z
Subject To
 allocateEach[1]: x[1,1] + x[2,1] + x[3,1] + x[4,1] = 1
 allocateEach[2]: x[1,2] + x[2,2] + x[3,2] + x[4,2] = 1
 allocateEach[3]: x[1,3] + x[2,3] + x[3,3] + x[4,3] = 1
 allocateEach[4]: x[1,4] + x[2,4] + x[3,4] + x[4,4] = 1
 allocateEach[5]: x[1,5] + x[2,5] + x[3,5] + x[4,5] = 1
 allocateEach[6]: x[1,6] + x[2,6] + x[3,6] + x[4,6] = 1
 allocateEach[7]: x[1,7] + x[2,7] + x[3,7] + x[4,7] = 1
 allocateEach[8]: x[1,8] + x[2,8] + x[3,8] + x[4,8] = 1
 allocateEach[9]: x[1,9] + x[2,9] + x[3,9] + x[4,9] = 1
 allocateEach[10]: x[1,10] + x[2,10] + x[3,10] + x[4,10] = 1
 allocateEach[11]: x[1,11] + x[2,11] + x[3,11] + x[4,11] = 1
 allocateEach[12]: x[1,12] + x[2,12] + x[3,12] + x[4,12] = 1
 allocateEach[13]: x[1,13] + x[2,13] + x[3,13] + x[4,13] = 1
 allocateAllCash: cashProportion[1] + cashProportion[2] + cashProportion[3]
   + cashProportion[4] = 1
 findWorstP[1,2]: z + 0.0295233455855217 cashProportion[1]
   - 0.0295233455855217 cashProportion[2] + 0.00177140073513131 x[1,1]
   + 0.0738378873093899 x[1,2] + 0.0584709859321258 x[1,3]
   + 0.1074945012768847 x[1,4] + 0.067534653026881 x[1,5]
   + 0.1451662902440105 x[1,6] + 0.111982049805884 x[1,7]
   + 0.00274567113945352 x[1,8] + 0.0247996102918383 x[1,9]
   + 0.0979141756343829 x[1,10] + 0.0531272603811464 x[1,11]
   + 0.1349512126714199 x[1,12] + 0.09068095596593 x[1,13]
   - 0.00177140073513131 x[2,1] - 0.0738378873093899 x[2,2]
   - 0.0584709859321258 x[2,3] - 0.1074945012768847 x[2,4]
   - 0.067534653026881 x[2,5] - 0.1451662902440105 x[2,6]
   - 0.111982049805884 x[2,7] - 0.00274567113945352 x[2,8]
   - 0.0247996102918383 x[2,9] - 0.0979141756343829 x[2,10]
   - 0.0531272603811464 x[2,11] - 0.1349512126714199 x[2,12]
   - 0.09068095596593 x[2,13] >= 0
 findWorstP[1,3]: z + 0.0295233455855217 cashProportion[1]
   - 0.0295233455855217 cashProportion[3] + 0.00177140073513131 x[1,1]
   + 0.0738378873093899 x[1,2] + 0.0584709859321258 x[1,3]
   + 0.1074945012768847 x[1,4] + 0.067534653026881 x[1,5]
   + 0.1451662902440105 x[1,6] + 0.111982049805884 x[1,7]
   + 0.00274567113945352 x[1,8] + 0.0247996102918383 x[1,9]
   + 0.0979141756343829 x[1,10] + 0.0531272603811464 x[1,11]
   + 0.1349512126714199 x[1,12] + 0.09068095596593 x[1,13]
   - 0.00177140073513131 x[3,1] - 0.0738378873093899 x[3,2]
   - 0.0584709859321258 x[3,3] - 0.1074945012768847 x[3,4]
   - 0.067534653026881 x[3,5] - 0.1451662902440105 x[3,6]
   - 0.111982049805884 x[3,7] - 0.00274567113945352 x[3,8]
   - 0.0247996102918383 x[3,9] - 0.0979141756343829 x[3,10]
   - 0.0531272603811464 x[3,11] - 0.1349512126714199 x[3,12]
   - 0.09068095596593 x[3,13] >= 0
 findWorstP[1,4]: z + 0.0295233455855217 cashProportion[1]
   - 0.0295233455855217 cashProportion[4] + 0.00177140073513131 x[1,1]
   + 0.0738378873093899 x[1,2] + 0.0584709859321258 x[1,3]
   + 0.1074945012768847 x[1,4] + 0.067534653026881 x[1,5]
   + 0.1451662902440105 x[1,6] + 0.111982049805884 x[1,7]
   + 0.00274567113945352 x[1,8] + 0.0247996102918383 x[1,9]
   + 0.0979141756343829 x[1,10] + 0.0531272603811464 x[1,11]
   + 0.1349512126714199 x[1,12] + 0.09068095596593 x[1,13]
   - 0.00177140073513131 x[4,1] - 0.0738378873093899 x[4,2]
   - 0.0584709859321258 x[4,3] - 0.1074945012768847 x[4,4]
   - 0.067534653026881 x[4,5] - 0.1451662902440105 x[4,6]
   - 0.111982049805884 x[4,7] - 0.00274567113945352 x[4,8]
   - 0.0247996102918383 x[4,9] - 0.0979141756343829 x[4,10]
   - 0.0531272603811464 x[4,11] - 0.1349512126714199 x[4,12]
   - 0.09068095596593 x[4,13] >= 0
 findWorstP[2,1]: z - 0.0373929626444303 cashProportion[1]
   + 0.0373929626444303 cashProportion[2] - 0.1264256067008189 x[1,1]
   - 0.00172007628164379 x[1,2] - 0.0833676102157574 x[1,3]
   - 0.0321579478742101 x[1,4] - 0.1423737052686684 x[1,5]
   - 0.0222862057360805 x[1,6] - 0.1033915417118498 x[1,7]
   - 0.0117413902703511 x[1,8] - 0.1286317914968403 x[1,9]
   - 0.1209288411920876 x[1,10] - 0.00547806902740904 x[1,11]
   - 0.0718879706839173 x[1,12] - 0.1122162808959354 x[1,13]
   + 0.1264256067008189 x[2,1] + 0.00172007628164379 x[2,2]
   + 0.0833676102157574 x[2,3] + 0.0321579478742101 x[2,4]
   + 0.1423737052686684 x[2,5] + 0.0222862057360805 x[2,6]
   + 0.1033915417118498 x[2,7] + 0.0117413902703511 x[2,8]
   + 0.1286317914968403 x[2,9] + 0.1209288411920876 x[2,10]
   + 0.00547806902740904 x[2,11] + 0.0718879706839173 x[2,12]
   + 0.1122162808959354 x[2,13] >= 0
 findWorstP[2,3]: z + 0.0373929626444303 cashProportion[2]
   - 0.0373929626444303 cashProportion[3] + 0.1264256067008189 x[2,1]
   + 0.00172007628164379 x[2,2] + 0.0833676102157574 x[2,3]
   + 0.0321579478742101 x[2,4] + 0.1423737052686684 x[2,5]
   + 0.0222862057360805 x[2,6] + 0.1033915417118498 x[2,7]
   + 0.0117413902703511 x[2,8] + 0.1286317914968403 x[2,9]
   + 0.1209288411920876 x[2,10] + 0.00547806902740904 x[2,11]
   + 0.0718879706839173 x[2,12] + 0.1122162808959354 x[2,13]
   - 0.1264256067008189 x[3,1] - 0.00172007628164379 x[3,2]
   - 0.0833676102157574 x[3,3] - 0.0321579478742101 x[3,4]
   - 0.1423737052686684 x[3,5] - 0.0222862057360805 x[3,6]
   - 0.1033915417118498 x[3,7] - 0.0117413902703511 x[3,8]
   - 0.1286317914968403 x[3,9] - 0.1209288411920876 x[3,10]
   - 0.00547806902740904 x[3,11] - 0.0718879706839173 x[3,12]
   - 0.1122162808959354 x[3,13] >= 0
 findWorstP[2,4]: z + 0.0373929626444303 cashProportion[2]
   - 0.0373929626444303 cashProportion[4] + 0.1264256067008189 x[2,1]
   + 0.00172007628164379 x[2,2] + 0.0833676102157574 x[2,3]
   + 0.0321579478742101 x[2,4] + 0.1423737052686684 x[2,5]
   + 0.0222862057360805 x[2,6] + 0.1033915417118498 x[2,7]
   + 0.0117413902703511 x[2,8] + 0.1286317914968403 x[2,9]
   + 0.1209288411920876 x[2,10] + 0.00547806902740904 x[2,11]
   + 0.0718879706839173 x[2,12] + 0.1122162808959354 x[2,13]
   - 0.1264256067008189 x[4,1] - 0.00172007628164379 x[4,2]
   - 0.0833676102157574 x[4,3] - 0.0321579478742101 x[4,4]
   - 0.1423737052686684 x[4,5] - 0.0222862057360805 x[4,6]
   - 0.1033915417118498 x[4,7] - 0.0117413902703511 x[4,8]
   - 0.1286317914968403 x[4,9] - 0.1209288411920876 x[4,10]
   - 0.00547806902740904 x[4,11] - 0.0718879706839173 x[4,12]
   - 0.1122162808959354 x[4,13] >= 0
 findWorstP[3,1]: z - 0.032779899365709 cashProportion[1]
   + 0.032779899365709 cashProportion[3] - 0.0634946650713782 x[1,1]
   - 0.1239735794011113 x[1,2] - 0.0318292822841034 x[1,3]
   - 0.00626096077885041 x[1,4] - 0.1399210004425287 x[1,5]
   - 0.00912920197334994 x[1,6] - 0.0664284660646092 x[1,7]
   - 0.0156196220477603 x[1,8] - 0.1634405782374248 x[1,9]
   - 0.1564912395718945 x[1,10] - 0.0827528559487323 x[1,11]
   - 0.0247160441217445 x[1,12] - 0.0831626046908036 x[1,13]
   + 0.0634946650713782 x[3,1] + 0.1239735794011113 x[3,2]
   + 0.0318292822841034 x[3,3] + 0.00626096077885041 x[3,4]
   + 0.1399210004425287 x[3,5] + 0.00912920197334994 x[3,6]
   + 0.0664284660646092 x[3,7] + 0.0156196220477603 x[3,8]
   + 0.1634405782374248 x[3,9] + 0.1564912395718945 x[3,10]
   + 0.0827528559487323 x[3,11] + 0.0247160441217445 x[3,12]
   + 0.0831626046908036 x[3,13] >= 0
 findWorstP[3,2]: z - 0.032779899365709 cashProportion[2]
   + 0.032779899365709 cashProportion[3] - 0.0634946650713782 x[2,1]
   - 0.1239735794011113 x[2,2] - 0.0318292822841034 x[2,3]
   - 0.00626096077885041 x[2,4] - 0.1399210004425287 x[2,5]
   - 0.00912920197334994 x[2,6] - 0.0664284660646092 x[2,7]
   - 0.0156196220477603 x[2,8] - 0.1634405782374248 x[2,9]
   - 0.1564912395718945 x[2,10] - 0.0827528559487323 x[2,11]
   - 0.0247160441217445 x[2,12] - 0.0831626046908036 x[2,13]
   + 0.0634946650713782 x[3,1] + 0.1239735794011113 x[3,2]
   + 0.0318292822841034 x[3,3] + 0.00626096077885041 x[3,4]
   + 0.1399210004425287 x[3,5] + 0.00912920197334994 x[3,6]
   + 0.0664284660646092 x[3,7] + 0.0156196220477603 x[3,8]
   + 0.1634405782374248 x[3,9] + 0.1564912395718945 x[3,10]
   + 0.0827528559487323 x[3,11] + 0.0247160441217445 x[3,12]
   + 0.0831626046908036 x[3,13] >= 0
 findWorstP[3,4]: z + 0.032779899365709 cashProportion[3]
   - 0.032779899365709 cashProportion[4] + 0.0634946650713782 x[3,1]
   + 0.1239735794011113 x[3,2] + 0.0318292822841034 x[3,3]
   + 0.00626096077885041 x[3,4] + 0.1399210004425287 x[3,5]
   + 0.00912920197334994 x[3,6] + 0.0664284660646092 x[3,7]
   + 0.0156196220477603 x[3,8] + 0.1634405782374248 x[3,9]
   + 0.1564912395718945 x[3,10] + 0.0827528559487323 x[3,11]
   + 0.0247160441217445 x[3,12] + 0.0831626046908036 x[3,13]
   - 0.0634946650713782 x[4,1] - 0.1239735794011113 x[4,2]
   - 0.0318292822841034 x[4,3] - 0.00626096077885041 x[4,4]
   - 0.1399210004425287 x[4,5] - 0.00912920197334994 x[4,6]
   - 0.0664284660646092 x[4,7] - 0.0156196220477603 x[4,8]
   - 0.1634405782374248 x[4,9] - 0.1564912395718945 x[4,10]
   - 0.0827528559487323 x[4,11] - 0.0247160441217445 x[4,12]
   - 0.0831626046908036 x[4,13] >= 0
 findWorstP[4,1]: z - 0.0301404545180541 cashProportion[1]
   + 0.0301404545180541 cashProportion[4] - 0.0962384712761468 x[1,1]
   - 0.0920338778708783 x[1,2] - 0.0107601422629453 x[1,3]
   - 0.1139911989872807 x[1,4] - 0.0561968774489119 x[1,5]
   - 0.1333715112423896 x[1,6] - 0.0764211224305262 x[1,7]
   - 0.0335463258785942 x[1,8] - 0.0165923202121888 x[1,9]
   - 0.0299445415636868 x[1,10] - 0.0638073422147206 x[1,11]
   - 0.101347278316957 x[1,12] - 0.1456085357767195 x[1,13]
   + 0.0962384712761468 x[4,1] + 0.0920338778708783 x[4,2]
   + 0.0107601422629453 x[4,3] + 0.1139911989872807 x[4,4]
   + 0.0561968774489119 x[4,5] + 0.1333715112423896 x[4,6]
   + 0.0764211224305262 x[4,7] + 0.0335463258785942 x[4,8]
   + 0.0165923202121888 x[4,9] + 0.0299445415636868 x[4,10]
   + 0.0638073422147206 x[4,11] + 0.101347278316957 x[4,12]
   + 0.1456085357767195 x[4,13] >= 0
 findWorstP[4,2]: z - 0.0301404545180541 cashProportion[2]
   + 0.0301404545180541 cashProportion[4] - 0.0962384712761468 x[2,1]
   - 0.0920338778708783 x[2,2] - 0.0107601422629453 x[2,3]
   - 0.1139911989872807 x[2,4] - 0.0561968774489119 x[2,5]
   - 0.1333715112423896 x[2,6] - 0.0764211224305262 x[2,7]
   - 0.0335463258785942 x[2,8] - 0.0165923202121888 x[2,9]
   - 0.0299445415636868 x[2,10] - 0.0638073422147206 x[2,11]
   - 0.101347278316957 x[2,12] - 0.1456085357767195 x[2,13]
   + 0.0962384712761468 x[4,1] + 0.0920338778708783 x[4,2]
   + 0.0107601422629453 x[4,3] + 0.1139911989872807 x[4,4]
   + 0.0561968774489119 x[4,5] + 0.1333715112423896 x[4,6]
   + 0.0764211224305262 x[4,7] + 0.0335463258785942 x[4,8]
   + 0.0165923202121888 x[4,9] + 0.0299445415636868 x[4,10]
   + 0.0638073422147206 x[4,11] + 0.101347278316957 x[4,12]
   + 0.1456085357767195 x[4,13] >= 0
 findWorstP[4,3]: z - 0.0301404545180541 cashProportion[3]
   + 0.0301404545180541 cashProportion[4] - 0.0962384712761468 x[3,1]
   - 0.0920338778708783 x[3,2] - 0.0107601422629453 x[3,3]
   - 0.1139911989872807 x[3,4] - 0.0561968774489119 x[3,5]
   - 0.1333715112423896 x[3,6] - 0.0764211224305262 x[3,7]
   - 0.0335463258785942 x[3,8] - 0.0165923202121888 x[3,9]
   - 0.0299445415636868 x[3,10] - 0.0638073422147206 x[3,11]
   - 0.101347278316957 x[3,12] - 0.1456085357767195 x[3,13]
   + 0.0962384712761468 x[4,1] + 0.0920338778708783 x[4,2]
   + 0.0107601422629453 x[4,3] + 0.1139911989872807 x[4,4]
   + 0.0561968774489119 x[4,5] + 0.1333715112423896 x[4,6]
   + 0.0764211224305262 x[4,7] + 0.0335463258785942 x[4,8]
   + 0.0165923202121888 x[4,9] + 0.0299445415636868 x[4,10]
   + 0.0638073422147206 x[4,11] + 0.101347278316957 x[4,12]
   + 0.1456085357767195 x[4,13] >= 0
Bounds
 z <= 1
 -infinity <= cashProportion[1] <= 1
 -infinity <= cashProportion[2] <= 1
 -infinity <= cashProportion[3] <= 1
 -infinity <= cashProportion[4] <= 1
Binaries
 x[1,1] x[1,2] x[1,3] x[1,4] x[1,5] x[1,6] x[1,7] x[1,8] x[1,9] x[1,10]
 x[1,11] x[1,12] x[1,13] x[2,1] x[2,2] x[2,3] x[2,4] x[2,5] x[2,6] x[2,7]
 x[2,8] x[2,9] x[2,10] x[2,11] x[2,12] x[2,13] x[3,1] x[3,2] x[3,3] x[3,4]
 x[3,5] x[3,6] x[3,7] x[3,8] x[3,9] x[3,10] x[3,11] x[3,12] x[3,13] x[4,1]
 x[4,2] x[4,3] x[4,4] x[4,5] x[4,6] x[4,7] x[4,8] x[4,9] x[4,10] x[4,11]
 x[4,12] x[4,13]
End
