data/mps_files/q3/73_3.mps
NAME foo
ROWS
 N  OBJ
 E  allocateEach[1]
 E  allocateEach[2]
 E  allocateEach[3]
 E  allocateEach[4]
 E  allocateEach[5]
 E  allocateEach[6]
 E  allocateEach[7]
 E  allocateEach[8]
 E  allocateEach[9]
 E  allocateEach[10]
 E  allocateEach[11]
 E  allocateEach[12]
 E  allocateEach[13]
 E  allocateAllCash
 G  findWorstP[1,2]
 G  findWorstP[1,3]
 G  findWorstP[1,4]
 G  findWorstP[2,1]
 G  findWorstP[2,3]
 G  findWorstP[2,4]
 G  findWorstP[3,1]
 G  findWorstP[3,2]
 G  findWorstP[3,4]
 G  findWorstP[4,1]
 G  findWorstP[4,2]
 G  findWorstP[4,3]
COLUMNS
    z         OBJ       1
    z         findWorstP[1,2]  1
    z         findWorstP[1,3]  1
    z         findWorstP[1,4]  1
    z         findWorstP[2,1]  1
    z         findWorstP[2,3]  1
    z         findWorstP[2,4]  1
    z         findWorstP[3,1]  1
    z         findWorstP[3,2]  1
    z         findWorstP[3,4]  1
    z         findWorstP[4,1]  1
    z         findWorstP[4,2]  1
    z         findWorstP[4,3]  1
    cashProportion[1]  allocateAllCash  1
    cashProportion[1]  findWorstP[1,2]  2.9523345585521749e-02
    cashProportion[1]  findWorstP[1,3]  2.9523345585521749e-02
    cashProportion[1]  findWorstP[1,4]  2.9523345585521749e-02
    cashProportion[1]  findWorstP[2,1]  -3.7392962644430316e-02
    cashProportion[1]  findWorstP[3,1]  -3.2779899365708957e-02
    cashProportion[1]  findWorstP[4,1]  -3.0140454518054135e-02
    cashProportion[2]  allocateAllCash  1
    cashProportion[2]  findWorstP[1,2]  -2.9523345585521749e-02
    cashProportion[2]  findWorstP[2,1]  3.7392962644430316e-02
    cashProportion[2]  findWorstP[2,3]  3.7392962644430316e-02
    cashProportion[2]  findWorstP[2,4]  3.7392962644430316e-02
    cashProportion[2]  findWorstP[3,2]  -3.2779899365708957e-02
    cashProportion[2]  findWorstP[4,2]  -3.0140454518054135e-02
    cashProportion[3]  allocateAllCash  1
    cashProportion[3]  findWorstP[1,3]  -2.9523345585521749e-02
    cashProportion[3]  findWorstP[2,3]  -3.7392962644430316e-02
    cashProportion[3]  findWorstP[3,1]  3.2779899365708957e-02
    cashProportion[3]  findWorstP[3,2]  3.2779899365708957e-02
    cashProportion[3]  findWorstP[3,4]  3.2779899365708957e-02
    cashProportion[3]  findWorstP[4,3]  -3.0140454518054135e-02
    cashProportion[4]  allocateAllCash  1
    cashProportion[4]  findWorstP[1,4]  -2.9523345585521749e-02
    cashProportion[4]  findWorstP[2,4]  -3.7392962644430316e-02
    cashProportion[4]  findWorstP[3,4]  -3.2779899365708957e-02
    cashProportion[4]  findWorstP[4,1]  3.0140454518054135e-02
    cashProportion[4]  findWorstP[4,2]  3.0140454518054135e-02
    cashProportion[4]  findWorstP[4,3]  3.0140454518054135e-02
    MARKER    'MARKER'                 'INTORG'
    x[1,1]    allocateEach[1]  1
    x[1,1]    findWorstP[1,2]  1.7714007351313050e-03
    x[1,1]    findWorstP[1,3]  1.7714007351313050e-03
    x[1,1]    findWorstP[1,4]  1.7714007351313050e-03
    x[1,1]    findWorstP[2,1]  -1.2642560670081890e-01
    x[1,1]    findWorstP[3,1]  -6.3494665071378242e-02
    x[1,1]    findWorstP[4,1]  -9.6238471276146834e-02
    x[1,2]    allocateEach[2]  1
    x[1,2]    findWorstP[1,2]  0.0738378873093899
    x[1,2]    findWorstP[1,3]  0.0738378873093899
    x[1,2]    findWorstP[1,4]  0.0738378873093899
    x[1,2]    findWorstP[2,1]  -1.7200762816437945e-03
    x[1,2]    findWorstP[3,1]  -1.2397357940111126e-01
    x[1,2]    findWorstP[4,1]  -0.0920338778708783
    x[1,3]    allocateEach[3]  1
    x[1,3]    findWorstP[1,2]  5.8470985932125824e-02
    x[1,3]    findWorstP[1,3]  5.8470985932125824e-02
    x[1,3]    findWorstP[1,4]  5.8470985932125824e-02
    x[1,3]    findWorstP[2,1]  -8.3367610215757393e-02
    x[1,3]    findWorstP[3,1]  -3.1829282284103394e-02
    x[1,3]    findWorstP[4,1]  -1.0760142262945326e-02
    x[1,4]    allocateEach[4]  1
    x[1,4]    findWorstP[1,2]  1.0749450127688467e-01
    x[1,4]    findWorstP[1,3]  1.0749450127688467e-01
    x[1,4]    findWorstP[1,4]  1.0749450127688467e-01
    x[1,4]    findWorstP[2,1]  -3.2157947874210072e-02
    x[1,4]    findWorstP[3,1]  -0.00626096077885041
    x[1,4]    findWorstP[4,1]  -1.1399119898728072e-01
    x[1,5]    allocateEach[5]  1
    x[1,5]    findWorstP[1,2]  0.067534653026881
    x[1,5]    findWorstP[1,3]  0.067534653026881
    x[1,5]    findWorstP[1,4]  0.067534653026881
    x[1,5]    findWorstP[2,1]  -1.4237370526866841e-01
    x[1,5]    findWorstP[3,1]  -1.3992100044252867e-01
    x[1,5]    findWorstP[4,1]  -5.6196877448911935e-02
    x[1,6]    allocateEach[6]  1
    x[1,6]    findWorstP[1,2]  1.4516629024401045e-01
    x[1,6]    findWorstP[1,3]  1.4516629024401045e-01
    x[1,6]    findWorstP[1,4]  1.4516629024401045e-01
    x[1,6]    findWorstP[2,1]  -2.2286205736080467e-02
    x[1,6]    findWorstP[3,1]  -9.1292019733499440e-03
    x[1,6]    findWorstP[4,1]  -1.3337151124238955e-01
    x[1,7]    allocateEach[7]  1
    x[1,7]    findWorstP[1,2]  0.111982049805884
    x[1,7]    findWorstP[1,3]  0.111982049805884
    x[1,7]    findWorstP[1,4]  0.111982049805884
    x[1,7]    findWorstP[2,1]  -1.0339154171184983e-01
    x[1,7]    findWorstP[3,1]  -0.0664284660646092
    x[1,7]    findWorstP[4,1]  -7.6421122430526248e-02
    x[1,8]    allocateEach[8]  1
    x[1,8]    findWorstP[1,2]  2.7456711394535224e-03
    x[1,8]    findWorstP[1,3]  2.7456711394535224e-03
    x[1,8]    findWorstP[1,4]  2.7456711394535224e-03
    x[1,8]    findWorstP[2,1]  -1.1741390270351119e-02
    x[1,8]    findWorstP[3,1]  -1.5619622047760316e-02
    x[1,8]    findWorstP[4,1]  -3.3546325878594248e-02
    x[1,9]    allocateEach[9]  1
    x[1,9]    findWorstP[1,2]  2.4799610291838272e-02
    x[1,9]    findWorstP[1,3]  2.4799610291838272e-02
    x[1,9]    findWorstP[1,4]  2.4799610291838272e-02
    x[1,9]    findWorstP[2,1]  -1.2863179149684029e-01
    x[1,9]    findWorstP[3,1]  -1.6344057823742483e-01
    x[1,9]    findWorstP[4,1]  -1.6592320212188802e-02
    x[1,10]   allocateEach[10]  1
    x[1,10]   findWorstP[1,2]  9.7914175634382886e-02
    x[1,10]   findWorstP[1,3]  9.7914175634382886e-02
    x[1,10]   findWorstP[1,4]  9.7914175634382886e-02
    x[1,10]   findWorstP[2,1]  -1.2092884119208765e-01
    x[1,10]   findWorstP[3,1]  -1.5649123957189454e-01
    x[1,10]   findWorstP[4,1]  -2.9944541563686779e-02
    x[1,11]   allocateEach[11]  1
    x[1,11]   findWorstP[1,2]  5.3127260381146388e-02
    x[1,11]   findWorstP[1,3]  5.3127260381146388e-02
    x[1,11]   findWorstP[1,4]  5.3127260381146388e-02
    x[1,11]   findWorstP[2,1]  -5.4780690274090415e-03
    x[1,11]   findWorstP[3,1]  -8.2752855948732260e-02
    x[1,11]   findWorstP[4,1]  -0.0638073422147206
    x[1,12]   allocateEach[12]  1
    x[1,12]   findWorstP[1,2]  1.3495121267141991e-01
    x[1,12]   findWorstP[1,3]  1.3495121267141991e-01
    x[1,12]   findWorstP[1,4]  1.3495121267141991e-01
    x[1,12]   findWorstP[2,1]  -7.1887970683917279e-02
    x[1,12]   findWorstP[3,1]  -2.4716044121744548e-02
    x[1,12]   findWorstP[4,1]  -1.0134727831695702e-01
    x[1,13]   allocateEach[13]  1
    x[1,13]   findWorstP[1,2]  9.0680955965930038e-02
    x[1,13]   findWorstP[1,3]  9.0680955965930038e-02
    x[1,13]   findWorstP[1,4]  9.0680955965930038e-02
    x[1,13]   findWorstP[2,1]  -1.1221628089593537e-01
    x[1,13]   findWorstP[3,1]  -8.3162604690803610e-02
    x[1,13]   findWorstP[4,1]  -1.4560853577671951e-01
    x[2,1]    allocateEach[1]  1
    x[2,1]    findWorstP[1,2]  -1.7714007351313050e-03
    x[2,1]    findWorstP[2,1]  1.2642560670081890e-01
    x[2,1]    findWorstP[2,3]  1.2642560670081890e-01
    x[2,1]    findWorstP[2,4]  1.2642560670081890e-01
    x[2,1]    findWorstP[3,2]  -6.3494665071378242e-02
    x[2,1]    findWorstP[4,2]  -9.6238471276146834e-02
    x[2,2]    allocateEach[2]  1
    x[2,2]    findWorstP[1,2]  -0.0738378873093899
    x[2,2]    findWorstP[2,1]  1.7200762816437945e-03
    x[2,2]    findWorstP[2,3]  1.7200762816437945e-03
    x[2,2]    findWorstP[2,4]  1.7200762816437945e-03
    x[2,2]    findWorstP[3,2]  -1.2397357940111126e-01
    x[2,2]    findWorstP[4,2]  -0.0920338778708783
    x[2,3]    allocateEach[3]  1
    x[2,3]    findWorstP[1,2]  -5.8470985932125824e-02
    x[2,3]    findWorstP[2,1]  8.3367610215757393e-02
    x[2,3]    findWorstP[2,3]  8.3367610215757393e-02
    x[2,3]    findWorstP[2,4]  8.3367610215757393e-02
    x[2,3]    findWorstP[3,2]  -3.1829282284103394e-02
    x[2,3]    findWorstP[4,2]  -1.0760142262945326e-02
    x[2,4]    allocateEach[4]  1
    x[2,4]    findWorstP[1,2]  -1.0749450127688467e-01
    x[2,4]    findWorstP[2,1]  3.2157947874210072e-02
    x[2,4]    findWorstP[2,3]  3.2157947874210072e-02
    x[2,4]    findWorstP[2,4]  3.2157947874210072e-02
    x[2,4]    findWorstP[3,2]  -0.00626096077885041
    x[2,4]    findWorstP[4,2]  -1.1399119898728072e-01
    x[2,5]    allocateEach[5]  1
    x[2,5]    findWorstP[1,2]  -0.067534653026881
    x[2,5]    findWorstP[2,1]  1.4237370526866841e-01
    x[2,5]    findWorstP[2,3]  1.4237370526866841e-01
    x[2,5]    findWorstP[2,4]  1.4237370526866841e-01
    x[2,5]    findWorstP[3,2]  -1.3992100044252867e-01
    x[2,5]    findWorstP[4,2]  -5.6196877448911935e-02
    x[2,6]    allocateEach[6]  1
    x[2,6]    findWorstP[1,2]  -1.4516629024401045e-01
    x[2,6]    findWorstP[2,1]  2.2286205736080467e-02
    x[2,6]    findWorstP[2,3]  2.2286205736080467e-02
    x[2,6]    findWorstP[2,4]  2.2286205736080467e-02
    x[2,6]    findWorstP[3,2]  -9.1292019733499440e-03
    x[2,6]    findWorstP[4,2]  -1.3337151124238955e-01
    x[2,7]    allocateEach[7]  1
    x[2,7]    findWorstP[1,2]  -0.111982049805884
    x[2,7]    findWorstP[2,1]  1.0339154171184983e-01
    x[2,7]    findWorstP[2,3]  1.0339154171184983e-01
    x[2,7]    findWorstP[2,4]  1.0339154171184983e-01
    x[2,7]    findWorstP[3,2]  -0.0664284660646092
    x[2,7]    findWorstP[4,2]  -7.6421122430526248e-02
    x[2,8]    allocateEach[8]  1
    x[2,8]    findWorstP[1,2]  -2.7456711394535224e-03
    x[2,8]    findWorstP[2,1]  1.1741390270351119e-02
    x[2,8]    findWorstP[2,3]  1.1741390270351119e-02
    x[2,8]    findWorstP[2,4]  1.1741390270351119e-02
    x[2,8]    findWorstP[3,2]  -1.5619622047760316e-02
    x[2,8]    findWorstP[4,2]  -3.3546325878594248e-02
    x[2,9]    allocateEach[9]  1
    x[2,9]    findWorstP[1,2]  -2.4799610291838272e-02
    x[2,9]    findWorstP[2,1]  1.2863179149684029e-01
    x[2,9]    findWorstP[2,3]  1.2863179149684029e-01
    x[2,9]    findWorstP[2,4]  1.2863179149684029e-01
    x[2,9]    findWorstP[3,2]  -1.6344057823742483e-01
    x[2,9]    findWorstP[4,2]  -1.6592320212188802e-02
    x[2,10]   allocateEach[10]  1
    x[2,10]   findWorstP[1,2]  -9.7914175634382886e-02
    x[2,10]   findWorstP[2,1]  1.2092884119208765e-01
    x[2,10]   findWorstP[2,3]  1.2092884119208765e-01
    x[2,10]   findWorstP[2,4]  1.2092884119208765e-01
    x[2,10]   findWorstP[3,2]  -1.5649123957189454e-01
    x[2,10]   findWorstP[4,2]  -2.9944541563686779e-02
    x[2,11]   allocateEach[11]  1
    x[2,11]   findWorstP[1,2]  -5.3127260381146388e-02
    x[2,11]   findWorstP[2,1]  5.4780690274090415e-03
    x[2,11]   findWorstP[2,3]  5.4780690274090415e-03
    x[2,11]   findWorstP[2,4]  5.4780690274090415e-03
    x[2,11]   findWorstP[3,2]  -8.2752855948732260e-02
    x[2,11]   findWorstP[4,2]  -0.0638073422147206
    x[2,12]   allocateEach[12]  1
    x[2,12]   findWorstP[1,2]  -1.3495121267141991e-01
    x[2,12]   findWorstP[2,1]  7.1887970683917279e-02
    x[2,12]   findWorstP[2,3]  7.1887970683917279e-02
    x[2,12]   findWorstP[2,4]  7.1887970683917279e-02
    x[2,12]   findWorstP[3,2]  -2.4716044121744548e-02
    x[2,12]   findWorstP[4,2]  -1.0134727831695702e-01
    x[2,13]   allocateEach[13]  1
    x[2,13]   findWorstP[1,2]  -9.0680955965930038e-02
    x[2,13]   findWorstP[2,1]  1.1221628089593537e-01
    x[2,13]   findWorstP[2,3]  1.1221628089593537e-01
    x[2,13]   findWorstP[2,4]  1.1221628089593537e-01
    x[2,13]   findWorstP[3,2]  -8.3162604690803610e-02
    x[2,13]   findWorstP[4,2]  -1.4560853577671951e-01
    x[3,1]    allocateEach[1]  1
    x[3,1]    findWorstP[1,3]  -1.7714007351313050e-03
    x[3,1]    findWorstP[2,3]  -1.2642560670081890e-01
    x[3,1]    findWorstP[3,1]  6.3494665071378242e-02
    x[3,1]    findWorstP[3,2]  6.3494665071378242e-02
    x[3,1]    findWorstP[3,4]  6.3494665071378242e-02
    x[3,1]    findWorstP[4,3]  -9.6238471276146834e-02
    x[3,2]    allocateEach[2]  1
    x[3,2]    findWorstP[1,3]  -0.0738378873093899
    x[3,2]    findWorstP[2,3]  -1.7200762816437945e-03
    x[3,2]    findWorstP[3,1]  1.2397357940111126e-01
    x[3,2]    findWorstP[3,2]  1.2397357940111126e-01
    x[3,2]    findWorstP[3,4]  1.2397357940111126e-01
    x[3,2]    findWorstP[4,3]  -0.0920338778708783
    x[3,3]    allocateEach[3]  1
    x[3,3]    findWorstP[1,3]  -5.8470985932125824e-02
    x[3,3]    findWorstP[2,3]  -8.3367610215757393e-02
    x[3,3]    findWorstP[3,1]  3.1829282284103394e-02
    x[3,3]    findWorstP[3,2]  3.1829282284103394e-02
    x[3,3]    findWorstP[3,4]  3.1829282284103394e-02
    x[3,3]    findWorstP[4,3]  -1.0760142262945326e-02
    x[3,4]    allocateEach[4]  1
    x[3,4]    findWorstP[1,3]  -1.0749450127688467e-01
    x[3,4]    findWorstP[2,3]  -3.2157947874210072e-02
    x[3,4]    findWorstP[3,1]  0.00626096077885041
    x[3,4]    findWorstP[3,2]  0.00626096077885041
    x[3,4]    findWorstP[3,4]  0.00626096077885041
    x[3,4]    findWorstP[4,3]  -1.1399119898728072e-01
    x[3,5]    allocateEach[5]  1
    x[3,5]    findWorstP[1,3]  -0.067534653026881
    x[3,5]    findWorstP[2,3]  -1.4237370526866841e-01
    x[3,5]    findWorstP[3,1]  1.3992100044252867e-01
    x[3,5]    findWorstP[3,2]  1.3992100044252867e-01
    x[3,5]    findWorstP[3,4]  1.3992100044252867e-01
    x[3,5]    findWorstP[4,3]  -5.6196877448911935e-02
    x[3,6]    allocateEach[6]  1
    x[3,6]    findWorstP[1,3]  -1.4516629024401045e-01
    x[3,6]    findWorstP[2,3]  -2.2286205736080467e-02
    x[3,6]    findWorstP[3,1]  9.1292019733499440e-03
    x[3,6]    findWorstP[3,2]  9.1292019733499440e-03
    x[3,6]    findWorstP[3,4]  9.1292019733499440e-03
    x[3,6]    findWorstP[4,3]  -1.3337151124238955e-01
    x[3,7]    allocateEach[7]  1
    x[3,7]    findWorstP[1,3]  -0.111982049805884
    x[3,7]    findWorstP[2,3]  -1.0339154171184983e-01
    x[3,7]    findWorstP[3,1]  0.0664284660646092
    x[3,7]    findWorstP[3,2]  0.0664284660646092
    x[3,7]    findWorstP[3,4]  0.0664284660646092
    x[3,7]    findWorstP[4,3]  -7.6421122430526248e-02
    x[3,8]    allocateEach[8]  1
    x[3,8]    findWorstP[1,3]  -2.7456711394535224e-03
    x[3,8]    findWorstP[2,3]  -1.1741390270351119e-02
    x[3,8]    findWorstP[3,1]  1.5619622047760316e-02
    x[3,8]    findWorstP[3,2]  1.5619622047760316e-02
    x[3,8]    findWorstP[3,4]  1.5619622047760316e-02
    x[3,8]    findWorstP[4,3]  -3.3546325878594248e-02
    x[3,9]    allocateEach[9]  1
    x[3,9]    findWorstP[1,3]  -2.4799610291838272e-02
    x[3,9]    findWorstP[2,3]  -1.2863179149684029e-01
    x[3,9]    findWorstP[3,1]  1.6344057823742483e-01
    x[3,9]    findWorstP[3,2]  1.6344057823742483e-01
    x[3,9]    findWorstP[3,4]  1.6344057823742483e-01
    x[3,9]    findWorstP[4,3]  -1.6592320212188802e-02
    x[3,10]   allocateEach[10]  1
    x[3,10]   findWorstP[1,3]  -9.7914175634382886e-02
    x[3,10]   findWorstP[2,3]  -1.2092884119208765e-01
    x[3,10]   findWorstP[3,1]  1.5649123957189454e-01
    x[3,10]   findWorstP[3,2]  1.5649123957189454e-01
    x[3,10]   findWorstP[3,4]  1.5649123957189454e-01
    x[3,10]   findWorstP[4,3]  -2.9944541563686779e-02
    x[3,11]   allocateEach[11]  1
    x[3,11]   findWorstP[1,3]  -5.3127260381146388e-02
    x[3,11]   findWorstP[2,3]  -5.4780690274090415e-03
    x[3,11]   findWorstP[3,1]  8.2752855948732260e-02
    x[3,11]   findWorstP[3,2]  8.2752855948732260e-02
    x[3,11]   findWorstP[3,4]  8.2752855948732260e-02
    x[3,11]   findWorstP[4,3]  -0.0638073422147206
    x[3,12]   allocateEach[12]  1
    x[3,12]   findWorstP[1,3]  -1.3495121267141991e-01
    x[3,12]   findWorstP[2,3]  -7.1887970683917279e-02
    x[3,12]   findWorstP[3,1]  2.4716044121744548e-02
    x[3,12]   findWorstP[3,2]  2.4716044121744548e-02
    x[3,12]   findWorstP[3,4]  2.4716044121744548e-02
    x[3,12]   findWorstP[4,3]  -1.0134727831695702e-01
    x[3,13]   allocateEach[13]  1
    x[3,13]   findWorstP[1,3]  -9.0680955965930038e-02
    x[3,13]   findWorstP[2,3]  -1.1221628089593537e-01
    x[3,13]   findWorstP[3,1]  8.3162604690803610e-02
    x[3,13]   findWorstP[3,2]  8.3162604690803610e-02
    x[3,13]   findWorstP[3,4]  8.3162604690803610e-02
    x[3,13]   findWorstP[4,3]  -1.4560853577671951e-01
    x[4,1]    allocateEach[1]  1
    x[4,1]    findWorstP[1,4]  -1.7714007351313050e-03
    x[4,1]    findWorstP[2,4]  -1.2642560670081890e-01
    x[4,1]    findWorstP[3,4]  -6.3494665071378242e-02
    x[4,1]    findWorstP[4,1]  9.6238471276146834e-02
    x[4,1]    findWorstP[4,2]  9.6238471276146834e-02
    x[4,1]    findWorstP[4,3]  9.6238471276146834e-02
    x[4,2]    allocateEach[2]  1
    x[4,2]    findWorstP[1,4]  -0.0738378873093899
    x[4,2]    findWorstP[2,4]  -1.7200762816437945e-03
    x[4,2]    findWorstP[3,4]  -1.2397357940111126e-01
    x[4,2]    findWorstP[4,1]  0.0920338778708783
    x[4,2]    findWorstP[4,2]  0.0920338778708783
    x[4,2]    findWorstP[4,3]  0.0920338778708783
    x[4,3]    allocateEach[3]  1
    x[4,3]    findWorstP[1,4]  -5.8470985932125824e-02
    x[4,3]    findWorstP[2,4]  -8.3367610215757393e-02
    x[4,3]    findWorstP[3,4]  -3.1829282284103394e-02
    x[4,3]    findWorstP[4,1]  1.0760142262945326e-02
    x[4,3]    findWorstP[4,2]  1.0760142262945326e-02
    x[4,3]    findWorstP[4,3]  1.0760142262945326e-02
    x[4,4]    allocateEach[4]  1
    x[4,4]    findWorstP[1,4]  -1.0749450127688467e-01
    x[4,4]    findWorstP[2,4]  -3.2157947874210072e-02
    x[4,4]    findWorstP[3,4]  -0.00626096077885041
    x[4,4]    findWorstP[4,1]  1.1399119898728072e-01
    x[4,4]    findWorstP[4,2]  1.1399119898728072e-01
    x[4,4]    findWorstP[4,3]  1.1399119898728072e-01
    x[4,5]    allocateEach[5]  1
    x[4,5]    findWorstP[1,4]  -0.067534653026881
    x[4,5]    findWorstP[2,4]  -1.4237370526866841e-01
    x[4,5]    findWorstP[3,4]  -1.3992100044252867e-01
    x[4,5]    findWorstP[4,1]  5.6196877448911935e-02
    x[4,5]    findWorstP[4,2]  5.6196877448911935e-02
    x[4,5]    findWorstP[4,3]  5.6196877448911935e-02
    x[4,6]    allocateEach[6]  1
    x[4,6]    findWorstP[1,4]  -1.4516629024401045e-01
    x[4,6]    findWorstP[2,4]  -2.2286205736080467e-02
    x[4,6]    findWorstP[3,4]  -9.1292019733499440e-03
    x[4,6]    findWorstP[4,1]  1.3337151124238955e-01
    x[4,6]    findWorstP[4,2]  1.3337151124238955e-01
    x[4,6]    findWorstP[4,3]  1.3337151124238955e-01
    x[4,7]    allocateEach[7]  1
    x[4,7]    findWorstP[1,4]  -0.111982049805884
    x[4,7]    findWorstP[2,4]  -1.0339154171184983e-01
    x[4,7]    findWorstP[3,4]  -0.0664284660646092
    x[4,7]    findWorstP[4,1]  7.6421122430526248e-02
    x[4,7]    findWorstP[4,2]  7.6421122430526248e-02
    x[4,7]    findWorstP[4,3]  7.6421122430526248e-02
    x[4,8]    allocateEach[8]  1
    x[4,8]    findWorstP[1,4]  -2.7456711394535224e-03
    x[4,8]    findWorstP[2,4]  -1.1741390270351119e-02
    x[4,8]    findWorstP[3,4]  -1.5619622047760316e-02
    x[4,8]    findWorstP[4,1]  3.3546325878594248e-02
    x[4,8]    findWorstP[4,2]  3.3546325878594248e-02
    x[4,8]    findWorstP[4,3]  3.3546325878594248e-02
    x[4,9]    allocateEach[9]  1
    x[4,9]    findWorstP[1,4]  -2.4799610291838272e-02
    x[4,9]    findWorstP[2,4]  -1.2863179149684029e-01
    x[4,9]    findWorstP[3,4]  -1.6344057823742483e-01
    x[4,9]    findWorstP[4,1]  1.6592320212188802e-02
    x[4,9]    findWorstP[4,2]  1.6592320212188802e-02
    x[4,9]    findWorstP[4,3]  1.6592320212188802e-02
    x[4,10]   allocateEach[10]  1
    x[4,10]   findWorstP[1,4]  -9.7914175634382886e-02
    x[4,10]   findWorstP[2,4]  -1.2092884119208765e-01
    x[4,10]   findWorstP[3,4]  -1.5649123957189454e-01
    x[4,10]   findWorstP[4,1]  2.9944541563686779e-02
    x[4,10]   findWorstP[4,2]  2.9944541563686779e-02
    x[4,10]   findWorstP[4,3]  2.9944541563686779e-02
    x[4,11]   allocateEach[11]  1
    x[4,11]   findWorstP[1,4]  -5.3127260381146388e-02
    x[4,11]   findWorstP[2,4]  -5.4780690274090415e-03
    x[4,11]   findWorstP[3,4]  -8.2752855948732260e-02
    x[4,11]   findWorstP[4,1]  0.0638073422147206
    x[4,11]   findWorstP[4,2]  0.0638073422147206
    x[4,11]   findWorstP[4,3]  0.0638073422147206
    x[4,12]   allocateEach[12]  1
    x[4,12]   findWorstP[1,4]  -1.3495121267141991e-01
    x[4,12]   findWorstP[2,4]  -7.1887970683917279e-02
    x[4,12]   findWorstP[3,4]  -2.4716044121744548e-02
    x[4,12]   findWorstP[4,1]  1.0134727831695702e-01
    x[4,12]   findWorstP[4,2]  1.0134727831695702e-01
    x[4,12]   findWorstP[4,3]  1.0134727831695702e-01
    x[4,13]   allocateEach[13]  1
    x[4,13]   findWorstP[1,4]  -9.0680955965930038e-02
    x[4,13]   findWorstP[2,4]  -1.1221628089593537e-01
    x[4,13]   findWorstP[3,4]  -8.3162604690803610e-02
    x[4,13]   findWorstP[4,1]  1.4560853577671951e-01
    x[4,13]   findWorstP[4,2]  1.4560853577671951e-01
    x[4,13]   findWorstP[4,3]  1.4560853577671951e-01
    MARKER    'MARKER'                 'INTEND'
RHS
    RHS1      allocateEach[1]  1
    RHS1      allocateEach[2]  1
    RHS1      allocateEach[3]  1
    RHS1      allocateEach[4]  1
    RHS1      allocateEach[5]  1
    RHS1      allocateEach[6]  1
    RHS1      allocateEach[7]  1
    RHS1      allocateEach[8]  1
    RHS1      allocateEach[9]  1
    RHS1      allocateEach[10]  1
    RHS1      allocateEach[11]  1
    RHS1      allocateEach[12]  1
    RHS1      allocateEach[13]  1
    RHS1      allocateAllCash  1
BOUNDS
 UP BND1      z         1
 MI BND1      cashProportion[1]
 UP BND1      cashProportion[1]  1
 MI BND1      cashProportion[2]
 UP BND1      cashProportion[2]  1
 MI BND1      cashProportion[3]
 UP BND1      cashProportion[3]  1
 MI BND1      cashProportion[4]
 UP BND1      cashProportion[4]  1
 BV BND1      x[1,1]  
 BV BND1      x[1,2]  
 BV BND1      x[1,3]  
 BV BND1      x[1,4]  
 BV BND1      x[1,5]  
 BV BND1      x[1,6]  
 BV BND1      x[1,7]  
 BV BND1      x[1,8]  
 BV BND1      x[1,9]  
 BV BND1      x[1,10] 
 BV BND1      x[1,11] 
 BV BND1      x[1,12] 
 BV BND1      x[1,13] 
 BV BND1      x[2,1]  
 BV BND1      x[2,2]  
 BV BND1      x[2,3]  
 BV BND1      x[2,4]  
 BV BND1      x[2,5]  
 BV BND1      x[2,6]  
 BV BND1      x[2,7]  
 BV BND1      x[2,8]  
 BV BND1      x[2,9]  
 BV BND1      x[2,10] 
 BV BND1      x[2,11] 
 BV BND1      x[2,12] 
 BV BND1      x[2,13] 
 BV BND1      x[3,1]  
 BV BND1      x[3,2]  
 BV BND1      x[3,3]  
 BV BND1      x[3,4]  
 BV BND1      x[3,5]  
 BV BND1      x[3,6]  
 BV BND1      x[3,7]  
 BV BND1      x[3,8]  
 BV BND1      x[3,9]  
 BV BND1      x[3,10] 
 BV BND1      x[3,11] 
 BV BND1      x[3,12] 
 BV BND1      x[3,13] 
 BV BND1      x[4,1]  
 BV BND1      x[4,2]  
 BV BND1      x[4,3]  
 BV BND1      x[4,4]  
 BV BND1      x[4,5]  
 BV BND1      x[4,6]  
 BV BND1      x[4,7]  
 BV BND1      x[4,8]  
 BV BND1      x[4,9]  
 BV BND1      x[4,10] 
 BV BND1      x[4,11] 
 BV BND1      x[4,12] 
 BV BND1      x[4,13] 
ENDATA
